g3 1 1 0 # unnamed problem generated by COEK
 101 200 1 0 1 0 # vars, constraints, objectives, ranges, eqns, lcons
 200 1 # nonlinear constraints, objectives
 0 0 # network constraints: nonlinear, linear
 100 4 3 # nonlinear vars in constraints, objectives, both
 0 0 0 1 # linear network variables; functions; arith, flags
 0 0 0 0 0 # discrete variables: binary, integer, nonlinear (b,c,o)
 595 4 # nonzeros in Jacobian, gradients
 0 0 # max name lengths: constraints, variables
 0 0 0 0 0 # common exprs: b,c,o,c1,o1
C0
o0
o2
v1
v2
o2
n3
o2
v1
v100
C1
o0
o2
v1
v3
o2
n2
o2
v2
v100
C2
o0
o2
v1
v4
o2
n1.666666666666667
o2
v3
v100
C3
o0
o2
v1
v5
o2
n1.5
o2
v4
v100
C4
o0
o2
v1
v6
o2
n1.4
o2
v5
v100
C5
o0
o2
v1
v7
o2
n1.333333333333333
o2
v6
v100
C6
o0
o2
v1
v8
o2
n1.285714285714286
o2
v7
v100
C7
o0
o2
v1
v9
o2
n1.25
o2
v8
v100
C8
o0
o2
v1
v10
o2
n1.222222222222222
o2
v9
v100
C9
o0
o2
v1
v11
o2
n1.2
o2
v10
v100
C10
o0
o2
v1
v12
o2
n1.181818181818182
o2
v11
v100
C11
o0
o2
v1
v13
o2
n1.166666666666667
o2
v12
v100
C12
o0
o2
v1
v14
o2
n1.153846153846154
o2
v13
v100
C13
o0
o2
v1
v15
o2
n1.142857142857143
o2
v14
v100
C14
o0
o2
v1
v16
o2
n1.133333333333333
o2
v15
v100
C15
o0
o2
v1
v17
o2
n1.125
o2
v16
v100
C16
o0
o2
v1
v18
o2
n1.117647058823529
o2
v17
v100
C17
o0
o2
v1
v19
o2
n1.111111111111111
o2
v18
v100
C18
o0
o2
v1
v20
o2
n1.105263157894737
o2
v19
v100
C19
o0
o2
v1
v21
o2
n1.1
o2
v20
v100
C20
o0
o2
v1
v22
o2
n1.095238095238095
o2
v21
v100
C21
o0
o2
v1
v23
o2
n1.090909090909091
o2
v22
v100
C22
o0
o2
v1
v24
o2
n1.08695652173913
o2
v23
v100
C23
o0
o2
v1
v25
o2
n1.083333333333333
o2
v24
v100
C24
o0
o2
v1
v26
o2
n1.08
o2
v25
v100
C25
o0
o2
v1
v27
o2
n1.076923076923077
o2
v26
v100
C26
o0
o2
v1
v28
o2
n1.074074074074074
o2
v27
v100
C27
o0
o2
v1
v29
o2
n1.071428571428571
o2
v28
v100
C28
o0
o2
v1
v30
o2
n1.068965517241379
o2
v29
v100
C29
o0
o2
v1
v31
o2
n1.066666666666667
o2
v30
v100
C30
o0
o2
v1
v32
o2
n1.064516129032258
o2
v31
v100
C31
o0
o2
v1
v33
o2
n1.0625
o2
v32
v100
C32
o0
o2
v1
v34
o2
n1.060606060606061
o2
v33
v100
C33
o0
o2
v1
v35
o2
n1.058823529411765
o2
v34
v100
C34
o0
o2
v1
v36
o2
n1.057142857142857
o2
v35
v100
C35
o0
o2
v1
v37
o2
n1.055555555555556
o2
v36
v100
C36
o0
o2
v1
v38
o2
n1.054054054054054
o2
v37
v100
C37
o0
o2
v1
v39
o2
n1.052631578947368
o2
v38
v100
C38
o0
o2
v1
v40
o2
n1.051282051282051
o2
v39
v100
C39
o0
o2
v1
v41
o2
n1.05
o2
v40
v100
C40
o0
o2
v1
v42
o2
n1.048780487804878
o2
v41
v100
C41
o0
o2
v1
v43
o2
n1.047619047619048
o2
v42
v100
C42
o0
o2
v1
v44
o2
n1.046511627906977
o2
v43
v100
C43
o0
o2
v1
v45
o2
n1.045454545454545
o2
v44
v100
C44
o0
o2
v1
v46
o2
n1.044444444444445
o2
v45
v100
C45
o0
o2
v1
v47
o2
n1.043478260869565
o2
v46
v100
C46
o0
o2
v1
v48
o2
n1.042553191489362
o2
v47
v100
C47
o0
o2
v1
v49
o2
n1.041666666666667
o2
v48
v100
C48
o0
o2
v1
v50
o2
n1.040816326530612
o2
v49
v100
C49
o0
o2
v1
v51
o2
n1.04
o2
v50
v100
C50
o0
o2
v1
v52
o2
n1.03921568627451
o2
v51
v100
C51
o0
o2
v1
v53
o2
n1.038461538461539
o2
v52
v100
C52
o0
o2
v1
v54
o2
n1.037735849056604
o2
v53
v100
C53
o0
o2
v1
v55
o2
n1.037037037037037
o2
v54
v100
C54
o0
o2
v1
v56
o2
n1.036363636363636
o2
v55
v100
C55
o0
o2
v1
v57
o2
n1.035714285714286
o2
v56
v100
C56
o0
o2
v1
v58
o2
n1.035087719298246
o2
v57
v100
C57
o0
o2
v1
v59
o2
n1.03448275862069
o2
v58
v100
C58
o0
o2
v1
v60
o2
n1.033898305084746
o2
v59
v100
C59
o0
o2
v1
v61
o2
n1.033333333333333
o2
v60
v100
C60
o0
o2
v1
v62
o2
n1.032786885245902
o2
v61
v100
C61
o0
o2
v1
v63
o2
n1.032258064516129
o2
v62
v100
C62
o0
o2
v1
v64
o2
n1.031746031746032
o2
v63
v100
C63
o0
o2
v1
v65
o2
n1.03125
o2
v64
v100
C64
o0
o2
v1
v66
o2
n1.030769230769231
o2
v65
v100
C65
o0
o2
v1
v67
o2
n1.03030303030303
o2
v66
v100
C66
o0
o2
v1
v68
o2
n1.029850746268657
o2
v67
v100
C67
o0
o2
v1
v69
o2
n1.029411764705882
o2
v68
v100
C68
o0
o2
v1
v70
o2
n1.028985507246377
o2
v69
v100
C69
o0
o2
v1
v71
o2
n1.028571428571428
o2
v70
v100
C70
o0
o2
v1
v72
o2
n1.028169014084507
o2
v71
v100
C71
o0
o2
v1
v73
o2
n1.027777777777778
o2
v72
v100
C72
o0
o2
v1
v74
o2
n1.027397260273973
o2
v73
v100
C73
o0
o2
v1
v75
o2
n1.027027027027027
o2
v74
v100
C74
o0
o2
v1
v76
o2
n1.026666666666667
o2
v75
v100
C75
o0
o2
v1
v77
o2
n1.026315789473684
o2
v76
v100
C76
o0
o2
v1
v78
o2
n1.025974025974026
o2
v77
v100
C77
o0
o2
v1
v79
o2
n1.025641025641026
o2
v78
v100
C78
o0
o2
v1
v80
o2
n1.025316455696202
o2
v79
v100
C79
o0
o2
v1
v81
o2
n1.025
o2
v80
v100
C80
o0
o2
v1
v82
o2
n1.024691358024691
o2
v81
v100
C81
o0
o2
v1
v83
o2
n1.024390243902439
o2
v82
v100
C82
o0
o2
v1
v84
o2
n1.024096385542169
o2
v83
v100
C83
o0
o2
v1
v85
o2
n1.023809523809524
o2
v84
v100
C84
o0
o2
v1
v86
o2
n1.023529411764706
o2
v85
v100
C85
o0
o2
v1
v87
o2
n1.023255813953488
o2
v86
v100
C86
o0
o2
v1
v88
o2
n1.022988505747126
o2
v87
v100
C87
o0
o2
v1
v89
o2
n1.022727272727273
o2
v88
v100
C88
o0
o2
v1
v90
o2
n1.02247191011236
o2
v89
v100
C89
o0
o2
v1
v91
o2
n1.022222222222222
o2
v90
v100
C90
o0
o2
v1
v92
o2
n1.021978021978022
o2
v91
v100
C91
o0
o2
v1
v93
o2
n1.021739130434783
o2
v92
v100
C92
o0
o2
v1
v94
o2
n1.021505376344086
o2
v93
v100
C93
o0
o2
v1
v95
o2
n1.021276595744681
o2
v94
v100
C94
o0
o2
v1
v96
o2
n1.021052631578947
o2
v95
v100
C95
o0
o2
v1
v97
o2
n1.020833333333333
o2
v96
v100
C96
o0
o2
v1
v98
o2
n1.020618556701031
o2
v97
v100
C97
o0
o2
v1
v99
o2
n1.020408163265306
o2
v98
v100
C98
o0
o2
v1
v100
o2
n1.02020202020202
o2
v99
v100
C99
o5
o41
v1
n2
C100
o5
o41
v2
n2
C101
o5
o41
v3
n2
C102
o5
o41
v4
n2
C103
o5
o41
v5
n2
C104
o5
o41
v6
n2
C105
o5
o41
v7
n2
C106
o5
o41
v8
n2
C107
o5
o41
v9
n2
C108
o5
o41
v10
n2
C109
o5
o41
v11
n2
C110
o5
o41
v12
n2
C111
o5
o41
v13
n2
C112
o5
o41
v14
n2
C113
o5
o41
v15
n2
C114
o5
o41
v16
n2
C115
o5
o41
v17
n2
C116
o5
o41
v18
n2
C117
o5
o41
v19
n2
C118
o5
o41
v20
n2
C119
o5
o41
v21
n2
C120
o5
o41
v22
n2
C121
o5
o41
v23
n2
C122
o5
o41
v24
n2
C123
o5
o41
v25
n2
C124
o5
o41
v26
n2
C125
o5
o41
v27
n2
C126
o5
o41
v28
n2
C127
o5
o41
v29
n2
C128
o5
o41
v30
n2
C129
o5
o41
v31
n2
C130
o5
o41
v32
n2
C131
o5
o41
v33
n2
C132
o5
o41
v34
n2
C133
o5
o41
v35
n2
C134
o5
o41
v36
n2
C135
o5
o41
v37
n2
C136
o5
o41
v38
n2
C137
o5
o41
v39
n2
C138
o5
o41
v40
n2
C139
o5
o41
v41
n2
C140
o5
o41
v42
n2
C141
o5
o41
v43
n2
C142
o5
o41
v44
n2
C143
o5
o41
v45
n2
C144
o5
o41
v46
n2
C145
o5
o41
v47
n2
C146
o5
o41
v48
n2
C147
o5
o41
v49
n2
C148
o5
o41
v50
n2
C149
o5
o41
v51
n2
C150
o5
o41
v52
n2
C151
o5
o41
v53
n2
C152
o5
o41
v54
n2
C153
o5
o41
v55
n2
C154
o5
o41
v56
n2
C155
o5
o41
v57
n2
C156
o5
o41
v58
n2
C157
o5
o41
v59
n2
C158
o5
o41
v60
n2
C159
o5
o41
v61
n2
C160
o5
o41
v62
n2
C161
o5
o41
v63
n2
C162
o5
o41
v64
n2
C163
o5
o41
v65
n2
C164
o5
o41
v66
n2
C165
o5
o41
v67
n2
C166
o5
o41
v68
n2
C167
o5
o41
v69
n2
C168
o5
o41
v70
n2
C169
o5
o41
v71
n2
C170
o5
o41
v72
n2
C171
o5
o41
v73
n2
C172
o5
o41
v74
n2
C173
o5
o41
v75
n2
C174
o5
o41
v76
n2
C175
o5
o41
v77
n2
C176
o5
o41
v78
n2
C177
o5
o41
v79
n2
C178
o5
o41
v80
n2
C179
o5
o41
v81
n2
C180
o5
o41
v82
n2
C181
o5
o41
v83
n2
C182
o5
o41
v84
n2
C183
o5
o41
v85
n2
C184
o5
o41
v86
n2
C185
o5
o41
v87
n2
C186
o5
o41
v88
n2
C187
o5
o41
v89
n2
C188
o5
o41
v90
n2
C189
o5
o41
v91
n2
C190
o5
o41
v92
n2
C191
o5
o41
v93
n2
C192
o5
o41
v94
n2
C193
o5
o41
v95
n2
C194
o5
o41
v96
n2
C195
o5
o41
v97
n2
C196
o5
o41
v98
n2
C197
o5
o41
v99
n2
C198
o5
o41
v100
n2
C199
o5
o0
v1
v100
n2
O0 0
o2
n0.5
o5
o0
o2
o0
v1
o2
n-1
v100
v2
v0
n2
x100
1 0.5
2 0.5
3 0.5
4 0.5
5 0.5
6 0.5
7 0.5
8 0.5
9 0.5
10 0.5
11 0.5
12 0.5
13 0.5
14 0.5
15 0.5
16 0.5
17 0.5
18 0.5
19 0.5
20 0.5
21 0.5
22 0.5
23 0.5
24 0.5
25 0.5
26 0.5
27 0.5
28 0.5
29 0.5
30 0.5
31 0.5
32 0.5
33 0.5
34 0.5
35 0.5
36 0.5
37 0.5
38 0.5
39 0.5
40 0.5
41 0.5
42 0.5
43 0.5
44 0.5
45 0.5
46 0.5
47 0.5
48 0.5
49 0.5
50 0.5
51 0.5
52 0.5
53 0.5
54 0.5
55 0.5
56 0.5
57 0.5
58 0.5
59 0.5
60 0.5
61 0.5
62 0.5
63 0.5
64 0.5
65 0.5
66 0.5
67 0.5
68 0.5
69 0.5
70 0.5
71 0.5
72 0.5
73 0.5
74 0.5
75 0.5
76 0.5
77 0.5
78 0.5
79 0.5
80 0.5
81 0.5
82 0.5
83 0.5
84 0.5
85 0.5
86 0.5
87 0.5
88 0.5
89 0.5
90 0.5
91 0.5
92 0.5
93 0.5
94 0.5
95 0.5
96 0.5
97 0.5
98 0.5
99 0.5
100 0.5
r
1 0
1 0
1 0
1 0
1 0
1 0
1 0
1 0
1 0
1 0
1 0
1 0
1 0
1 0
1 0
1 0
1 0
1 0
1 0
1 0
1 0
1 0
1 0
1 0
1 0
1 0
1 0
1 0
1 0
1 0
1 0
1 0
1 0
1 0
1 0
1 0
1 0
1 0
1 0
1 0
1 0
1 0
1 0
1 0
1 0
1 0
1 0
1 0
1 0
1 0
1 0
1 0
1 0
1 0
1 0
1 0
1 0
1 0
1 0
1 0
1 0
1 0
1 0
1 0
1 0
1 0
1 0
1 0
1 0
1 0
1 0
1 0
1 0
1 0
1 0
1 0
1 0
1 0
1 0
1 0
1 0
1 0
1 0
1 0
1 0
1 0
1 0
1 0
1 0
1 0
1 0
1 0
1 0
1 0
1 0
1 0
1 0
1 0
1 0
1 0.5
1 0.5
1 0.5
1 0.5
1 0.5
1 0.5
1 0.5
1 0.5
1 0.5
1 0.5
1 0.5
1 0.5
1 0.5
1 0.5
1 0.5
1 0.5
1 0.5
1 0.5
1 0.5
1 0.5
1 0.5
1 0.5
1 0.5
1 0.5
1 0.5
1 0.5
1 0.5
1 0.5
1 0.5
1 0.5
1 0.5
1 0.5
1 0.5
1 0.5
1 0.5
1 0.5
1 0.5
1 0.5
1 0.5
1 0.5
1 0.5
1 0.5
1 0.5
1 0.5
1 0.5
1 0.5
1 0.5
1 0.5
1 0.5
1 0.5
1 0.5
1 0.5
1 0.5
1 0.5
1 0.5
1 0.5
1 0.5
1 0.5
1 0.5
1 0.5
1 0.5
1 0.5
1 0.5
1 0.5
1 0.5
1 0.5
1 0.5
1 0.5
1 0.5
1 0.5
1 0.5
1 0.5
1 0.5
1 0.5
1 0.5
1 0.5
1 0.5
1 0.5
1 0.5
1 0.5
1 0.5
1 0.5
1 0.5
1 0.5
1 0.5
1 0.5
1 0.5
1 0.5
1 0.5
1 0.5
1 0.5
1 0.5
1 0.5
1 0.5
1 0.5
1 0.5
1 0.5
1 0.5
1 0.5
1 0.5
4 1
b
3
0 -1 1
0 -1 2
0 -1 3
0 -1 4
0 -1 5
0 -1 6
0 -1 7
0 -1 8
0 -1 9
0 -1 10
0 -1 11
0 -1 12
0 -1 13
0 -1 14
0 -1 15
0 -1 16
0 -1 17
0 -1 18
0 -1 19
0 -1 20
0 -1 21
0 -1 22
0 -1 23
0 -1 24
0 -1 25
0 -1 26
0 -1 27
0 -1 28
0 -1 29
0 -1 30
0 -1 31
0 -1 32
0 -1 33
0 -1 34
0 -1 35
0 -1 36
0 -1 37
0 -1 38
0 -1 39
0 -1 40
0 -1 41
0 -1 42
0 -1 43
0 -1 44
0 -1 45
0 -1 46
0 -1 47
0 -1 48
0 -1 49
0 -1 50
0 -1 51
0 -1 52
0 -1 53
0 -1 54
0 -1 55
0 -1 56
0 -1 57
0 -1 58
0 -1 59
0 -1 60
0 -1 61
0 -1 62
0 -1 63
0 -1 64
0 -1 65
0 -1 66
0 -1 67
0 -1 68
0 -1 69
0 -1 70
0 -1 71
0 -1 72
0 -1 73
0 -1 74
0 -1 75
0 -1 76
0 -1 77
0 -1 78
0 -1 79
0 -1 80
0 -1 81
0 -1 82
0 -1 83
0 -1 84
0 -1 85
0 -1 86
0 -1 87
0 -1 88
0 -1 89
0 -1 90
0 -1 91
0 -1 92
0 -1 93
0 -1 94
0 -1 95
0 -1 96
0 -1 97
0 -1 98
0 -1 99
0 -1 100
k100
99
200
203
206
209
212
215
218
221
224
227
230
233
236
239
242
245
248
251
254
257
260
263
266
269
272
275
278
281
284
287
290
293
296
299
302
305
308
311
314
317
320
323
326
329
332
335
338
341
344
347
350
353
356
359
362
365
368
371
374
377
380
383
386
389
392
395
398
401
404
407
410
413
416
419
422
425
428
431
434
437
440
443
446
449
452
455
458
461
464
467
470
473
476
479
482
485
488
491
494
J0 4
0 1
1 0
2 0
100 0
J1 5
0 1
1 0
2 0
3 0
100 0
J2 5
0 1
1 0
3 0
4 0
100 0
J3 5
0 1
1 0
4 0
5 0
100 0
J4 5
0 1
1 0
5 0
6 0
100 0
J5 5
0 1
1 0
6 0
7 0
100 0
J6 5
0 1
1 0
7 0
8 0
100 0
J7 5
0 1
1 0
8 0
9 0
100 0
J8 5
0 1
1 0
9 0
10 0
100 0
J9 5
0 1
1 0
10 0
11 0
100 0
J10 5
0 1
1 0
11 0
12 0
100 0
J11 5
0 1
1 0
12 0
13 0
100 0
J12 5
0 1
1 0
13 0
14 0
100 0
J13 5
0 1
1 0
14 0
15 0
100 0
J14 5
0 1
1 0
15 0
16 0
100 0
J15 5
0 1
1 0
16 0
17 0
100 0
J16 5
0 1
1 0
17 0
18 0
100 0
J17 5
0 1
1 0
18 0
19 0
100 0
J18 5
0 1
1 0
19 0
20 0
100 0
J19 5
0 1
1 0
20 0
21 0
100 0
J20 5
0 1
1 0
21 0
22 0
100 0
J21 5
0 1
1 0
22 0
23 0
100 0
J22 5
0 1
1 0
23 0
24 0
100 0
J23 5
0 1
1 0
24 0
25 0
100 0
J24 5
0 1
1 0
25 0
26 0
100 0
J25 5
0 1
1 0
26 0
27 0
100 0
J26 5
0 1
1 0
27 0
28 0
100 0
J27 5
0 1
1 0
28 0
29 0
100 0
J28 5
0 1
1 0
29 0
30 0
100 0
J29 5
0 1
1 0
30 0
31 0
100 0
J30 5
0 1
1 0
31 0
32 0
100 0
J31 5
0 1
1 0
32 0
33 0
100 0
J32 5
0 1
1 0
33 0
34 0
100 0
J33 5
0 1
1 0
34 0
35 0
100 0
J34 5
0 1
1 0
35 0
36 0
100 0
J35 5
0 1
1 0
36 0
37 0
100 0
J36 5
0 1
1 0
37 0
38 0
100 0
J37 5
0 1
1 0
38 0
39 0
100 0
J38 5
0 1
1 0
39 0
40 0
100 0
J39 5
0 1
1 0
40 0
41 0
100 0
J40 5
0 1
1 0
41 0
42 0
100 0
J41 5
0 1
1 0
42 0
43 0
100 0
J42 5
0 1
1 0
43 0
44 0
100 0
J43 5
0 1
1 0
44 0
45 0
100 0
J44 5
0 1
1 0
45 0
46 0
100 0
J45 5
0 1
1 0
46 0
47 0
100 0
J46 5
0 1
1 0
47 0
48 0
100 0
J47 5
0 1
1 0
48 0
49 0
100 0
J48 5
0 1
1 0
49 0
50 0
100 0
J49 5
0 1
1 0
50 0
51 0
100 0
J50 5
0 1
1 0
51 0
52 0
100 0
J51 5
0 1
1 0
52 0
53 0
100 0
J52 5
0 1
1 0
53 0
54 0
100 0
J53 5
0 1
1 0
54 0
55 0
100 0
J54 5
0 1
1 0
55 0
56 0
100 0
J55 5
0 1
1 0
56 0
57 0
100 0
J56 5
0 1
1 0
57 0
58 0
100 0
J57 5
0 1
1 0
58 0
59 0
100 0
J58 5
0 1
1 0
59 0
60 0
100 0
J59 5
0 1
1 0
60 0
61 0
100 0
J60 5
0 1
1 0
61 0
62 0
100 0
J61 5
0 1
1 0
62 0
63 0
100 0
J62 5
0 1
1 0
63 0
64 0
100 0
J63 5
0 1
1 0
64 0
65 0
100 0
J64 5
0 1
1 0
65 0
66 0
100 0
J65 5
0 1
1 0
66 0
67 0
100 0
J66 5
0 1
1 0
67 0
68 0
100 0
J67 5
0 1
1 0
68 0
69 0
100 0
J68 5
0 1
1 0
69 0
70 0
100 0
J69 5
0 1
1 0
70 0
71 0
100 0
J70 5
0 1
1 0
71 0
72 0
100 0
J71 5
0 1
1 0
72 0
73 0
100 0
J72 5
0 1
1 0
73 0
74 0
100 0
J73 5
0 1
1 0
74 0
75 0
100 0
J74 5
0 1
1 0
75 0
76 0
100 0
J75 5
0 1
1 0
76 0
77 0
100 0
J76 5
0 1
1 0
77 0
78 0
100 0
J77 5
0 1
1 0
78 0
79 0
100 0
J78 5
0 1
1 0
79 0
80 0
100 0
J79 5
0 1
1 0
80 0
81 0
100 0
J80 5
0 1
1 0
81 0
82 0
100 0
J81 5
0 1
1 0
82 0
83 0
100 0
J82 5
0 1
1 0
83 0
84 0
100 0
J83 5
0 1
1 0
84 0
85 0
100 0
J84 5
0 1
1 0
85 0
86 0
100 0
J85 5
0 1
1 0
86 0
87 0
100 0
J86 5
0 1
1 0
87 0
88 0
100 0
J87 5
0 1
1 0
88 0
89 0
100 0
J88 5
0 1
1 0
89 0
90 0
100 0
J89 5
0 1
1 0
90 0
91 0
100 0
J90 5
0 1
1 0
91 0
92 0
100 0
J91 5
0 1
1 0
92 0
93 0
100 0
J92 5
0 1
1 0
93 0
94 0
100 0
J93 5
0 1
1 0
94 0
95 0
100 0
J94 5
0 1
1 0
95 0
96 0
100 0
J95 5
0 1
1 0
96 0
97 0
100 0
J96 5
0 1
1 0
97 0
98 0
100 0
J97 5
0 1
1 0
98 0
99 0
100 0
J98 4
0 1
1 0
99 0
100 0
J99 1
1 0
J100 1
2 0
J101 1
3 0
J102 1
4 0
J103 1
5 0
J104 1
6 0
J105 1
7 0
J106 1
8 0
J107 1
9 0
J108 1
10 0
J109 1
11 0
J110 1
12 0
J111 1
13 0
J112 1
14 0
J113 1
15 0
J114 1
16 0
J115 1
17 0
J116 1
18 0
J117 1
19 0
J118 1
20 0
J119 1
21 0
J120 1
22 0
J121 1
23 0
J122 1
24 0
J123 1
25 0
J124 1
26 0
J125 1
27 0
J126 1
28 0
J127 1
29 0
J128 1
30 0
J129 1
31 0
J130 1
32 0
J131 1
33 0
J132 1
34 0
J133 1
35 0
J134 1
36 0
J135 1
37 0
J136 1
38 0
J137 1
39 0
J138 1
40 0
J139 1
41 0
J140 1
42 0
J141 1
43 0
J142 1
44 0
J143 1
45 0
J144 1
46 0
J145 1
47 0
J146 1
48 0
J147 1
49 0
J148 1
50 0
J149 1
51 0
J150 1
52 0
J151 1
53 0
J152 1
54 0
J153 1
55 0
J154 1
56 0
J155 1
57 0
J156 1
58 0
J157 1
59 0
J158 1
60 0
J159 1
61 0
J160 1
62 0
J161 1
63 0
J162 1
64 0
J163 1
65 0
J164 1
66 0
J165 1
67 0
J166 1
68 0
J167 1
69 0
J168 1
70 0
J169 1
71 0
J170 1
72 0
J171 1
73 0
J172 1
74 0
J173 1
75 0
J174 1
76 0
J175 1
77 0
J176 1
78 0
J177 1
79 0
J178 1
80 0
J179 1
81 0
J180 1
82 0
J181 1
83 0
J182 1
84 0
J183 1
85 0
J184 1
86 0
J185 1
87 0
J186 1
88 0
J187 1
89 0
J188 1
90 0
J189 1
91 0
J190 1
92 0
J191 1
93 0
J192 1
94 0
J193 1
95 0
J194 1
96 0
J195 1
97 0
J196 1
98 0
J197 1
99 0
J198 1
100 0
J199 2
1 0
100 0
G0 4
0 0
1 0
2 0
100 0
